p cnf 85 445
-1 -12 0
-1 -13 0
-1 -14 0
-1 -15 0
-2 -11 0
-2 -13 0
-2 -14 0
-2 -15 0
-3 -11 0
-3 -12 0
-3 -14 0
-3 -15 0
-4 -11 0
-4 -12 0
-4 -13 0
-4 -15 0
-5 -11 0
-5 -12 0
-5 -13 0
-5 -14 0
-1 -32 0
-1 -33 0
-1 -34 0
-1 -35 0
-2 -31 0
-2 -33 0
-2 -34 0
-2 -35 0
-3 -31 0
-3 -32 0
-3 -34 0
-3 -35 0
-4 -31 0
-4 -32 0
-4 -33 0
-4 -35 0
-5 -31 0
-5 -32 0
-5 -33 0
-5 -34 0
-1 -37 0
-1 -38 0
-1 -39 0
-1 -40 0
-2 -36 0
-2 -38 0
-2 -39 0
-2 -40 0
-3 -36 0
-3 -37 0
-3 -39 0
-3 -40 0
-4 -36 0
-4 -37 0
-4 -38 0
-4 -40 0
-5 -36 0
-5 -37 0
-5 -38 0
-5 -39 0
-6 -37 0
-6 -38 0
-6 -39 0
-6 -40 0
-7 -36 0
-7 -38 0
-7 -39 0
-7 -40 0
-8 -36 0
-8 -37 0
-8 -39 0
-8 -40 0
-9 -36 0
-9 -37 0
-9 -38 0
-9 -40 0
-10 -36 0
-10 -37 0
-10 -38 0
-10 -39 0
-11 -17 0
-11 -18 0
-11 -19 0
-11 -20 0
-12 -16 0
-12 -18 0
-12 -19 0
-12 -20 0
-13 -16 0
-13 -17 0
-13 -19 0
-13 -20 0
-14 -16 0
-14 -17 0
-14 -18 0
-14 -20 0
-15 -16 0
-15 -17 0
-15 -18 0
-15 -19 0
-11 -22 0
-11 -23 0
-11 -24 0
-11 -25 0
-12 -21 0
-12 -23 0
-12 -24 0
-12 -25 0
-13 -21 0
-13 -22 0
-13 -24 0
-13 -25 0
-14 -21 0
-14 -22 0
-14 -23 0
-14 -25 0
-15 -21 0
-15 -22 0
-15 -23 0
-15 -24 0
-11 -27 0
-11 -28 0
-11 -29 0
-11 -30 0
-12 -26 0
-12 -28 0
-12 -29 0
-12 -30 0
-13 -26 0
-13 -27 0
-13 -29 0
-13 -30 0
-14 -26 0
-14 -27 0
-14 -28 0
-14 -30 0
-15 -26 0
-15 -27 0
-15 -28 0
-15 -29 0
-16 -22 0
-16 -23 0
-16 -24 0
-16 -25 0
-17 -21 0
-17 -23 0
-17 -24 0
-17 -25 0
-18 -21 0
-18 -22 0
-18 -24 0
-18 -25 0
-19 -21 0
-19 -22 0
-19 -23 0
-19 -25 0
-20 -21 0
-20 -22 0
-20 -23 0
-20 -24 0
-26 -32 0
-26 -33 0
-26 -34 0
-26 -35 0
-27 -31 0
-27 -33 0
-27 -34 0
-27 -35 0
-28 -31 0
-28 -32 0
-28 -34 0
-28 -35 0
-29 -31 0
-29 -32 0
-29 -33 0
-29 -35 0
-30 -31 0
-30 -32 0
-30 -33 0
-30 -34 0
-26 -37 0
-26 -38 0
-26 -39 0
-26 -40 0
-27 -36 0
-27 -38 0
-27 -39 0
-27 -40 0
-28 -36 0
-28 -37 0
-28 -39 0
-28 -40 0
-29 -36 0
-29 -37 0
-29 -38 0
-29 -40 0
-30 -36 0
-30 -37 0
-30 -38 0
-30 -39 0
-31 -37 0
-31 -38 0
-31 -39 0
-31 -40 0
-32 -36 0
-32 -38 0
-32 -39 0
-32 -40 0
-33 -36 0
-33 -37 0
-33 -39 0
-33 -40 0
-34 -36 0
-34 -37 0
-34 -38 0
-34 -40 0
-35 -36 0
-35 -37 0
-35 -38 0
-35 -39 0
1 6 11 16 21 26 31 36 0 
2 7 12 17 22 27 32 37 0 
3 8 13 18 23 28 33 38 0 
4 9 14 19 24 29 34 39 0 
5 10 15 20 25 30 35 40 0 
-2 -1 0
-3 -1 0
-4 -1 0
-5 -1 0
-3 -2 0
-4 -2 0
-5 -2 0
-4 -3 0
-5 -3 0
-5 -4 0
-7 -6 0
-8 -6 0
-9 -6 0
-10 -6 0
-8 -7 0
-9 -7 0
-10 -7 0
-9 -8 0
-10 -8 0
-10 -9 0
-12 -11 0
-13 -11 0
-14 -11 0
-15 -11 0
-13 -12 0
-14 -12 0
-15 -12 0
-14 -13 0
-15 -13 0
-15 -14 0
-17 -16 0
-18 -16 0
-19 -16 0
-20 -16 0
-18 -17 0
-19 -17 0
-20 -17 0
-19 -18 0
-20 -18 0
-20 -19 0
-22 -21 0
-23 -21 0
-24 -21 0
-25 -21 0
-23 -22 0
-24 -22 0
-25 -22 0
-24 -23 0
-25 -23 0
-25 -24 0
-27 -26 0
-28 -26 0
-29 -26 0
-30 -26 0
-28 -27 0
-29 -27 0
-30 -27 0
-29 -28 0
-30 -28 0
-30 -29 0
-32 -31 0
-33 -31 0
-34 -31 0
-35 -31 0
-33 -32 0
-34 -32 0
-35 -32 0
-34 -33 0
-35 -33 0
-35 -34 0
-37 -36 0
-38 -36 0
-39 -36 0
-40 -36 0
-38 -37 0
-39 -37 0
-40 -37 0
-39 -38 0
-40 -38 0
-40 -39 0
-1 -6 0
-2 -7 0
-3 -8 0
-4 -9 0
-5 -10 0
-1 -11 0
-2 -12 0
-3 -13 0
-4 -14 0
-5 -15 0
-1 -16 0
-2 -17 0
-3 -18 0
-4 -19 0
-5 -20 0
-1 -21 0
-2 -22 0
-3 -23 0
-4 -24 0
-5 -25 0
-1 -26 0
-2 -27 0
-3 -28 0
-4 -29 0
-5 -30 0
-1 -31 0
-2 -32 0
-3 -33 0
-4 -34 0
-5 -35 0
-1 -36 0
-2 -37 0
-3 -38 0
-4 -39 0
-5 -40 0
-6 -11 0
-7 -12 0
-8 -13 0
-9 -14 0
-10 -15 0
-6 -16 0
-7 -17 0
-8 -18 0
-9 -19 0
-10 -20 0
-6 -21 0
-7 -22 0
-8 -23 0
-9 -24 0
-10 -25 0
-6 -26 0
-7 -27 0
-8 -28 0
-9 -29 0
-10 -30 0
-6 -31 0
-7 -32 0
-8 -33 0
-9 -34 0
-10 -35 0
-6 -36 0
-7 -37 0
-8 -38 0
-9 -39 0
-10 -40 0
-11 -16 0
-12 -17 0
-13 -18 0
-14 -19 0
-15 -20 0
-11 -21 0
-12 -22 0
-13 -23 0
-14 -24 0
-15 -25 0
-11 -26 0
-12 -27 0
-13 -28 0
-14 -29 0
-15 -30 0
-11 -31 0
-12 -32 0
-13 -33 0
-14 -34 0
-15 -35 0
-11 -36 0
-12 -37 0
-13 -38 0
-14 -39 0
-15 -40 0
-16 -21 0
-17 -22 0
-18 -23 0
-19 -24 0
-20 -25 0
-16 -26 0
-17 -27 0
-18 -28 0
-19 -29 0
-20 -30 0
-16 -31 0
-17 -32 0
-18 -33 0
-19 -34 0
-20 -35 0
-16 -36 0
-17 -37 0
-18 -38 0
-19 -39 0
-20 -40 0
-21 -26 0
-22 -27 0
-23 -28 0
-24 -29 0
-25 -30 0
-21 -31 0
-22 -32 0
-23 -33 0
-24 -34 0
-25 -35 0
-21 -36 0
-22 -37 0
-23 -38 0
-24 -39 0
-25 -40 0
-26 -31 0
-27 -32 0
-28 -33 0
-29 -34 0
-30 -35 0
-26 -36 0
-27 -37 0
-28 -38 0
-29 -39 0
-30 -40 0
-31 -36 0
-32 -37 0
-33 -38 0
-34 -39 0
-35 -40 0
